p cnf 10 33
10 8 2 0
-10 8 -1 0
10 -7 4 0
-10 7 -3 0
-10 7 -1 0
10 -6 -1 0
-10 3 1 0
-10 -2 1 0
9 8 3 0
9 -6 -4 0
-9 6 -4 0
-9 5 4 0
9 5 4 0
9 -3 -1 0
8 -7 -5 0
8 -7 4 0
8 6 -3 0
-8 6 3 0
8 6 1 0
-8 5 1 0
-8 4 -2 0
-8 3 -1 0
8 2 -1 0
7 -6 -4 0
-7 5 -1 0
-7 4 -2 0
7 -4 -2 0
7 3 1 0
6 -5 2 0
6 -4 -1 0
6 3 -2 0
5 4 2 0
5 -2 1 0
